n_jobs = 2;
n_machines = 2;
job_task_machine = array2d(jobs, tasks, [1, 0, 0, 1]);
job_task_duration = array2d(jobs, tasks, [3, 2, 3, 4]);
% deadline = array2d(jobs, 1..3, [4, 1, 1, 6, 2, 0]); % orig

% deadline = array2d(jobs, 1..3, [4, 1, 1, 6, 1, 1]); % obj=0 check
deadline = array2d(jobs, 1..3, [4, 1, 2, 6, 1, 1]); % obj=0 check
% deadline = array2d(jobs, 1..3, [4, 1, 1, 6, 2, 1]);
% horizon = 0..16;
optimal = 1;
fixed_horizon = 0..10;
